SCIP version 10.0.0 [precision: 8 byte] [memory: block] [mode: optimized] [LP solver: Soplex 8.0.0] [GitHash: 860534740c]
Copyright (c) 2002-2025 Zuse Institute Berlin (ZIB)

External libraries: 
  Soplex 8.0.0         Linear Programming Solver developed at Zuse Institute Berlin (soplex.zib.de) [GitHash: 17fa8dbc]
  CppAD 20180000.0     Algorithmic Differentiation of C++ algorithms developed by B. Bell (github.com/coin-or/CppAD)
  ZLIB 1.2.13          General purpose compression library by J. Gailly and M. Adler (zlib.net)
  TinyCThread 1.2      small portable implementation of the C11 threads API (tinycthread.github.io)
  AMPL/MP 4.0.0        AMPL .nl file reader library (github.com/ampl/mp)
  Nauty 2.8.8          Computing Graph Automorphism Groups by Brendan D. McKay (users.cecs.anu.edu.au/~bdm/nauty)
  sassy 1.1            Symmetry preprocessor by Markus Anders (github.com/markusa4/sassy)

user parameter file <scip.set> not found - using default parameters

read problem <problem_big.lp>
============

original problem has 29 variables (0 bin, 29 int, 0 impl, 0 cont) and 52 constraints

solve problem
=============

presolving:
(round 1, fast)       5 del vars, 19 del conss, 0 add conss, 0 chg bounds, 12 chg sides, 12 chg coeffs, 0 upgd conss, 0 impls, 6 clqs
(round 2, exhaustive) 5 del vars, 28 del conss, 0 add conss, 0 chg bounds, 12 chg sides, 12 chg coeffs, 0 upgd conss, 0 impls, 6 clqs
(round 3, exhaustive) 5 del vars, 28 del conss, 0 add conss, 0 chg bounds, 12 chg sides, 12 chg coeffs, 5 upgd conss, 0 impls, 6 clqs
   (0.0s) sparsify finished: 6/120 (5.0%) nonzeros canceled - in total 6 canceled nonzeros, 12 changed coefficients, 0 added nonzeros
(round 4, exhaustive) 5 del vars, 28 del conss, 0 add conss, 0 chg bounds, 12 chg sides, 24 chg coeffs, 5 upgd conss, 0 impls, 6 clqs
(round 5, exhaustive) 5 del vars, 28 del conss, 0 add conss, 0 chg bounds, 12 chg sides, 24 chg coeffs, 6 upgd conss, 0 impls, 8 clqs
   (0.0s) probing cycle finished: starting next cycle
   (0.0s) symmetry computation started: requiring (bin +, int +, cont +), (fixed: bin -, int -, cont -)
   (0.0s) no symmetry present (symcode time: 0.00)
presolving (6 rounds: 6 fast, 5 medium, 5 exhaustive):
 5 deleted vars, 28 deleted constraints, 0 added constraints, 0 tightened bounds, 0 added holes, 12 changed sides, 24 changed coefficients
 24 implications, 8 cliques
presolved problem has 24 variables (20 bin, 4 int, 0 impl, 0 cont) and 24 constraints
      6 constraints of type <setppc>
     18 constraints of type <linear>
transformed objective value is always integral (scale: 1)
Presolving Time: 0.01

 time | node  | left  |LP iter|LP it/n|mem/heur|mdpt |vars |cons |rows |cuts |sepa|confs|strbr|  dualbound   | primalbound  |  gap   | compl. 
p 0.0s|     1 |     0 |     2 |     - |  clique|   0 |  24 |  24 |  24 |   0 |  0 |   0 |   0 | 0.000000e+00 | 2.100000e+01 |    Inf | unknown
  0.0s|     1 |     0 |    12 |     - |  1160k |   0 |  24 |  29 |  24 |   0 |  0 |   8 |   0 | 1.064516e+01 | 2.100000e+01 |  97.27%| unknown
  0.0s|     1 |     0 |    12 |     - |  1163k |   0 |  24 |  29 |  21 |   0 |  0 |   8 |   0 | 1.064516e+01 | 2.100000e+01 |  97.27%| unknown
  0.1s|     1 |     0 |    13 |     - |  1299k |   0 |  24 |  28 |  23 |   2 |  1 |   8 |   0 | 1.064516e+01 | 2.100000e+01 |  97.27%| unknown
r 0.1s|     1 |     0 |    13 |     - |shifting|   0 |  24 |  28 |  23 |   2 |  1 |   8 |   0 | 1.064516e+01 | 2.000000e+01 |  87.88%| unknown
  0.1s|     1 |     0 |    18 |     - |  1303k |   0 |  24 |  28 |  24 |   3 |  2 |   8 |   0 | 1.468750e+01 | 2.000000e+01 |  36.17%| unknown
  0.1s|     1 |     0 |    18 |     - |  1303k |   0 |  24 |  29 |  21 |   3 |  2 |   9 |   0 | 1.468750e+01 | 2.000000e+01 |  36.17%| unknown
  0.1s|     1 |     0 |    25 |     - |  1316k |   0 |  24 |  27 |  24 |   6 |  3 |   9 |   0 | 1.716016e+01 | 2.000000e+01 |  16.55%| unknown
  0.1s|     1 |     0 |    25 |     - |  1316k |   0 |  24 |  27 |  24 |   6 |  3 |  10 |   0 | 1.716016e+01 | 2.000000e+01 |  16.55%| unknown
  0.1s|     1 |     0 |    30 |     - |  1403k |   0 |  24 |  27 |  26 |   8 |  4 |  10 |   0 | 1.848980e+01 | 2.000000e+01 |   8.17%| unknown
  0.1s|     1 |     0 |    32 |     - |  1430k |   0 |  24 |  27 |  27 |   9 |  5 |  10 |   0 | 1.900000e+01 | 2.000000e+01 |   5.26%| unknown
  0.1s|     1 |     0 |    32 |     - |  1430k |   0 |  24 |  27 |  25 |   9 |  5 |  10 |   0 | 1.900000e+01 | 2.000000e+01 |   5.26%| unknown
  0.1s|     1 |     0 |    34 |     - |  1449k |   0 |  24 |  25 |  27 |  11 |  6 |  10 |   0 | 2.000000e+01 | 2.000000e+01 |   0.00%| unknown
  0.1s|     1 |     0 |    34 |     - |  1449k |   0 |  24 |  25 |  27 |  11 |  6 |  10 |   0 | 2.000000e+01 | 2.000000e+01 |   0.00%| unknown

SCIP Status        : problem is solved [optimal solution found]
Solving Time (sec) : 0.07
Solving Nodes      : 1
Primal Bound       : +2.00000000000000e+01 (5 solutions)
Dual Bound         : +2.00000000000000e+01
Gap                : 0.00 %

primal solution (original space):
=================================

objective value:                                   20
x01                                                 1 	(obj:5)
x12                                                 1 	(obj:5)
x20                                                 1 	(obj:10)
u1                                                  2 	(obj:0)
u2                                                  4 	(obj:0)
u3                                                  3 	(obj:0)
u4                                                  1 	(obj:0)

Statistics
==========

SCIP Status        : problem is solved [optimal solution found]
Total Time         :       0.07
  solving          :       0.07
  presolving       :       0.01 (included in solving)
  reading          :       0.01
  copying          :       0.00 (0 times copied the problem)
Original Problem   :
  Problem name     : problem_big.lp
  Variables        : 29 (0 binary, 29 integer, 0 implicit integer, 0 continuous)
  Constraints      : 52 initial, 52 maximal
  Objective        : minimize, 20 non-zeros (abs.min = 2, abs.max = 17)
Presolved Problem  :
  Problem name     : t_problem_big.lp
  Variables        : 24 (20 binary, 4 integer, 0 implicit integer, 0 continuous)
  Constraints      : 24 initial, 29 maximal
  Objective        : minimize, 20 non-zeros (abs.min = 2, abs.max = 17)
  Nonzeros         : 114 constraint, 11 clique table
Presolvers         :   ExecTime  SetupTime  Calls  FixedVars   AggrVars   ChgTypes  ChgBounds   AddHoles    DelCons    AddCons   ChgSides   ChgCoefs
  boundshift       :       0.00       0.00      0          0          0          0          0          0          0          0          0          0
  convertinttobin  :       0.00       0.00      0          0          0          0          0          0          0          0          0          0
  domcol           :       0.00       0.00      2          0          0          0          0          0          0          0          0          0
  dualagg          :       0.00       0.00      0          0          0          0          0          0          0          0          0          0
  dualcomp         :       0.00       0.00      0          0          0          0          0          0          0          0          0          0
  dualinfer        :       0.00       0.00      0          0          0          0          0          0          0          0          0          0
  dualsparsify     :       0.00       0.00      1          0          0          0          0          0          0          0          0          0
  gateextraction   :       0.00       0.00      0          0          0          0          0          0          0          0          0          0
  implics          :       0.00       0.00      5          0          0          0          0          0          0          0          0          0
  implint          :       0.00       0.00      0          0          0          0          0          0          0          0          0          0
  inttobinary      :       0.00       0.00      6          0          0          0          0          0          0          0          0          0
  qpkktref         :       0.00       0.00      0          0          0          0          0          0          0          0          0          0
  redvub           :       0.00       0.00      0          0          0          0          0          0          0          0          0          0
  sparsify         :       0.00       0.00      2          0          0          0          0          0          0          0          0         12
  stuffing         :       0.00       0.00      0          0          0          0          0          0          0          0          0          0
  trivial          :       0.00       0.00      6          5          0          0          0          0          0          0          0          0
  tworowbnd        :       0.00       0.00      0          0          0          0          0          0          0          0          0          0
  dualfix          :       0.00       0.00      6          0          0          0          0          0          0          0          0          0
  genvbounds       :       0.00       0.00      0          0          0          0          0          0          0          0          0          0
  probing          :       0.00       0.00      1          0          0          0          0          0          0          0          0          0
  pseudoobj        :       0.00       0.00      0          0          0          0          0          0          0          0          0          0
  symmetry         :       0.00       0.00      1          0          0          0          0          0          0          0          0          0
  vbounds          :       0.00       0.00      2          0          0          0          0          0          0          0          0          0
  setppc           :       0.00       0.00      9          0          0          0          0          0          0          0          0          0
  linear           :       0.00       0.00     11          0          0          0          0          0         28          0         12         12
  logicor          :       0.00       0.00      0          0          0          0          0          0          0          0          0          0
  benders          :       0.00       0.00      0          0          0          0          0          0          0          0          0          0
  components       :       0.00       0.00      1          0          0          0          0          0          0          0          0          0
  root node        :          -          -      -         12          -          -         12          -          -          -          -          -
Constraints        :     Number  MaxNumber  #Separate #Propagate    #EnfoLP    #EnfoRelax  #EnfoPS    #Check   #ResProp    Cutoffs    DomReds       Cuts    Applied      Conss   Children
  benderslp        :          0          0          0          0          0          0          0         16          0          0          0          0          0          0          0
  integral         :          0          0          0          0          0          0          0         16          0          0          0          0          0          0          0
  setppc           :          6+        11          6        137          0          0          0         11         10          1          0          1          0          0          0
  linear           :         18         18          6        136          0          0          0         11         29         10          0         10          0          0          0
  logicor          :          0+         1          0          1          0          0          0          0          0          0          0          0          0          0          0
  benders          :          0          0          0          0          0          0          0          6          0          0          0          0          0          0          0
  fixedvar         :          0          0          0          0          0          0          0          6          0          0          0          0          0          0          0
  countsols        :          0          0          0          0          0          0          0          6          0          0          0          0          0          0          0
  components       :          0          0          0          0          0          0          0          0          0          0          0          0          0          0          0
Constraint Timings :  TotalTime  SetupTime   Separate  Propagate     EnfoLP     EnfoPS     EnfoRelax   Check    ResProp    SB-Prop
  benderslp        :       0.00       0.00       0.00       0.00       0.00       0.00       0.00       0.00       0.00       0.00
  integral         :       0.00       0.00       0.00       0.00       0.00       0.00       0.00       0.00       0.00       0.00
  setppc           :       0.00       0.00       0.00       0.00       0.00       0.00       0.00       0.00       0.00       0.00
  linear           :       0.00       0.00       0.00       0.00       0.00       0.00       0.00       0.00       0.00       0.00
  logicor          :       0.00       0.00       0.00       0.00       0.00       0.00       0.00       0.00       0.00       0.00
  benders          :       0.00       0.00       0.00       0.00       0.00       0.00       0.00       0.00       0.00       0.00
  fixedvar         :       0.00       0.00       0.00       0.00       0.00       0.00       0.00       0.00       0.00       0.00
  countsols        :       0.00       0.00       0.00       0.00       0.00       0.00       0.00       0.00       0.00       0.00
  components       :       0.00       0.00       0.00       0.00       0.00       0.00       0.00       0.00       0.00       0.00
Propagators        : #Propagate   #ResProp    Cutoffs    DomReds
  dualfix          :          2          0          0          0
  genvbounds       :          0          0          0          0
  nlobbt           :          0          0          0          0
  obbt             :          0          0          0          0
  probing          :          0          0          0          0
  pseudoobj        :         16          0          0          0
  redcost          :         10          0          0         11
  rootredcost      :          0          0          0          0
  symmetry         :          0          0          0          0
  vbounds          :         31          0          0          0
Propagator Timings :  TotalTime  SetupTime   Presolve  Propagate    ResProp    SB-Prop
  dualfix          :       0.00       0.00       0.00       0.00       0.00       0.00
  genvbounds       :       0.00       0.00       0.00       0.00       0.00       0.00
  nlobbt           :       0.00       0.00       0.00       0.00       0.00       0.00
  obbt             :       0.00       0.00       0.00       0.00       0.00       0.00
  probing          :       0.00       0.00       0.00       0.00       0.00       0.00
  pseudoobj        :       0.00       0.00       0.00       0.00       0.00       0.00
  redcost          :       0.00       0.00       0.00       0.00       0.00       0.00
  rootredcost      :       0.00       0.00       0.00       0.00       0.00       0.00
  symmetry         :       0.00       0.00       0.00       0.00       0.00       0.00
  vbounds          :       0.00       0.00       0.00       0.00       0.00       0.00
Symmetry           :
  orbitopal red.   :          0 reductions applied,          0 cutoffs
  orbital reduction:          0 reductions applied,          0 cutoffs
  lexicographic red:          0 reductions applied,          0 cutoffs
  shadow tree time :       0.00 s
Conflict Analysis  :       Time      Calls    Success    DomReds  Conflicts   Literals    Reconvs ReconvLits   Dualrays   Nonzeros   LP Iters   (pool size: [10000,10000])
  propagation      :       0.00          7          7          -         13        4.8          0        0.0          -          -          -
  infeasible LP    :       0.00          0          0          -          0        0.0          0        0.0          1        2.0          0
  bound exceed. LP :       0.00          2          1          -          4        7.8          0        0.0          0        0.0         15
  strong branching :       0.00          0          0          -          0        0.0          0        0.0          -          -          0
  pseudo solution  :       0.00          0          0          -          0        0.0          0        0.0          -          -          -
  applied globally :       0.00          -          -          0          5        2.0          -          -          1          -          -
  applied locally  :          -          -          -          0          4        7.8          -          -          0          -          -
Separators         :   ExecTime  SetupTime      Calls  RootCalls    Cutoffs    DomReds  FoundCuts ViaPoolAdd  DirectAdd    Applied ViaPoolApp  DirectApp      Conss
  cut pool         :       0.00          -         11         11          -          -        119        222          -          -          -          -          -    (maximal pool size:        119)
  aggregation      :       0.00       0.00          6          6          0          0         13         20          0          1          1          0          0
  > cmir           :          -          -          -          -          -          -          -         17          0          1          1          0          -
  > flowcover      :          -          -          -          -          -          -          -          0          0          0          0          0          -
  > knapsackcover  :          -          -          -          -          -          -          -          3          0          0          0          0          -
  cgmip            :       0.00       0.00          0          0          0          0          0          0          0          0          0          0          0
  clique           :       0.00       0.00          6          6          0          0          0          0          0          0          0          0          0
  closecuts        :       0.00       0.00          0          0          0          0          0          0          0          0          0          0          0
  convexproj       :       0.00       0.00          0          0          0          0          0          0          0          0          0          0          0
  disjunctive      :       0.00       0.00          0          0          0          0          0          0          0          0          0          0          0
  eccuts           :       0.00       0.00          0          0          0          0          0          0          0          0          0          0          0
  gauge            :       0.00       0.00          0          0          0          0          0          0          0          0          0          0          0
  gomory           :       0.01       0.00          6          6          0          0         96        188          0          4          4          0          0
  > gomorymi       :          -          -          -          -          -          -          -        100          0          1          1          0          -
  > strongcg       :          -          -          -          -          -          -          -         88          0          3          3          0          -
  impliedbounds    :       0.00       0.00          6          6          0          1          6          8          0          4          4          0          0
  interminor       :       0.00       0.00          0          0          0          0          0          0          0          0          0          0          0
  intobj           :       0.00       0.00          0          0          0          0          0          0          0          0          0          0          0
  lagromory        :       0.00       0.00          0          0          0          0          0          0          0          0          0          0          0
  mcf              :       0.00       0.00          1          1          0          0          0          0          0          0          0          0          0
  minor            :       0.00       0.00          0          0          0          0          0          0          0          0          0          0          0
  mixing           :       0.00       0.00          6          6          0          0          0          0          0          0          0          0          0
  multilinear      :       0.00       0.00          6          6          0          0          0          0          0          0          0          0          0
  oddcycle         :       0.00       0.00          0          0          0          0          0          0          0          0          0          0          0
  rapidlearning    :       0.00       0.00          0          0          0          0          0          0          0          0          0          0          0
  rlt              :       0.00       0.00          6          6          0          0          0          0          0          0          0          0          0
  zerohalf         :       0.00       0.00          6          6          0          0          4          6          0          2          2          0          0
Cutselectors       :   ExecTime  SetupTime      Calls  RootCalls   Selected     Forced   Filtered  RootSelec   RootForc   RootFilt 
  hybrid           :       0.00       0.00          6          6         11          0        222         11          0        222
  ensemble         :       0.00       0.00          0          0          0          0          0          0          0          0
  dynamic          :       0.00       0.00          0          0          0          0          0          0          0          0
Pricers            :   ExecTime  SetupTime      Calls       Vars
  problem variables:       0.00          -          0          0
Branching Rules    :   ExecTime  SetupTime   BranchLP  BranchExt   BranchPS    Cutoffs    DomReds       Cuts      Conss   Children
  allfullstrong    :       0.00       0.00          0          0          0          0          0          0          0          0
  cloud            :       0.00       0.00          0          0          0          0          0          0          0          0
  distribution     :       0.00       0.00          0          0          0          0          0          0          0          0
  fullstrong       :       0.00       0.00          0          0          0          0          0          0          0          0
  gomory           :       0.00       0.00          0          0          0          0          0          0          0          0
  inference        :       0.00       0.00          0          0          0          0          0          0          0          0
  leastinf         :       0.00       0.00          0          0          0          0          0          0          0          0
  lookahead        :       0.00       0.00          0          0          0          0          0          0          0          0
  mostinf          :       0.00       0.00          0          0          0          0          0          0          0          0
  multaggr         :       0.00       0.00          0          0          0          0          0          0          0          0
  nodereopt        :       0.00       0.00          0          0          0          0          0          0          0          0
  pscost           :       0.00       0.00          0          0          0          0          0          0          0          0
  random           :       0.00       0.00          0          0          0          0          0          0          0          0
  relpscost        :       0.00       0.00          0          0          0          0          0          0          0          0
  vanillafullstrong:       0.00       0.00          0          0          0          0          0          0          0          0
Primal Heuristics  :   ExecTime  SetupTime      Calls      Found       Best
  LP solutions     :       0.00          -          -          0          0
  relax solutions  :       0.00          -          -          0          0
  pseudo solutions :       0.00          -          -          0          0
  strong branching :       0.00          -          -          0          0
  actconsdiving    :       0.00       0.00          0          0          0
  adaptivediving   :       0.00       0.00          0          0          0
  alns             :       0.00       0.00          0          0          0
  bound            :       0.00       0.00          0          0          0
  clique           :       0.01       0.00          1          1          1
  coefdiving       :       0.00       0.00          0          0          0
  completesol      :       0.00       0.00          0          0          0
  conflictdiving   :       0.00       0.00          0          0          0
  crossover        :       0.00       0.00          0          0          0
  dins             :       0.00       0.00          0          0          0
  distributiondivin:       0.00       0.00          0          0          0
  dps              :       0.00       0.00          0          0          0
  dualval          :       0.00       0.00          0          0          0
  farkasdiving     :       0.00       0.00          0          0          0
  feaspump         :       0.00       0.00          0          0          0
  fixandinfer      :       0.00       0.00          0          0          0
  fracdiving       :       0.00       0.00          0          0          0
  gins             :       0.00       0.00          0          0          0
  guideddiving     :       0.00       0.00          0          0          0
  indicator        :       0.00       0.00          0          0          0
  indicatordiving  :       0.00       0.00          0          0          0
  intdiving        :       0.00       0.00          0          0          0
  intshifting      :       0.00       0.00          0          0          0
  linesearchdiving :       0.00       0.00          0          0          0
  localbranching   :       0.00       0.00          0          0          0
  locks            :       0.00       0.00          1          0          0
  lpface           :       0.00       0.00          0          0          0
  mpec             :       0.00       0.00          0          0          0
  multistart       :       0.00       0.00          0          0          0
  mutation         :       0.00       0.00          0          0          0
  nlpdiving        :       0.00       0.00          0          0          0
  objpscostdiving  :       0.00       0.00          0          0          0
  octane           :       0.00       0.00          0          0          0
  ofins            :       0.00       0.00          0          0          0
  oneopt           :       0.00       0.00          2          0          0
  padm             :       0.00       0.00          0          0          0
  proximity        :       0.00       0.00          0          0          0
  pscostdiving     :       0.00       0.00          0          0          0
  randrounding     :       0.00       0.00          6          0          0
  rens             :       0.00       0.00          0          0          0
  reoptsols        :       0.00       0.00          0          0          0
  repair           :       0.00       0.00          0          0          0
  rins             :       0.00       0.00          0          0          0
  rootsoldiving    :       0.00       0.00          0          0          0
  rounding         :       0.00       0.00          6          0          0
  scheduler        :       0.00       0.00          0          0          0
  shiftandpropagate:       0.00       0.00          0          0          0
  shifting         :       0.00       0.00          6          4          1
  simplerounding   :       0.00       0.00          0          0          0
  subnlp           :       0.00       0.00          0          0          0
  trivial          :       0.00       0.00          2          0          0
  trivialnegation  :       0.00       0.00          0          0          0
  trustregion      :       0.00       0.00          0          0          0
  trysol           :       0.00       0.00          0          0          0
  twoopt           :       0.00       0.00          0          0          0
  undercover       :       0.00       0.00          0          0          0
  vbounds          :       0.00       0.00          1          0          0
  veclendiving     :       0.00       0.00          0          0          0
  zeroobj          :       0.00       0.00          0          0          0
  zirounding       :       0.00       0.00          0          0          0
  other solutions  :          -          -          -          0          -
LNS (Scheduler)    :      Calls  SetupTime  SolveTime SolveNodes       Sols       Best       Exp3    Exp3-IX  EpsGreedy        UCB TgtFixRate  Opt  Inf Node Stal  Sol  Usr Othr Actv
  rens             :          0       0.00       0.00          0          0          0    0.00000    0.12500   -1.00000    1.00000      0.900    0    0    0    0    0    0    0    1
  rins             :          0       0.00       0.00          0          0          0    0.00000    0.12500   -1.00000    1.00000      0.900    0    0    0    0    0    0    0    1
  mutation         :          0       0.00       0.00          0          0          0    0.00000    0.12500   -1.00000    1.00000      0.900    0    0    0    0    0    0    0    1
  localbranching   :          0       0.00       0.00          0          0          0    0.00000    0.12500   -1.00000    1.00000      0.900    0    0    0    0    0    0    0    1
  crossover        :          0       0.00       0.00          0          0          0    0.00000    0.12500   -1.00000    1.00000      0.900    0    0    0    0    0    0    0    1
  proximity        :          0       0.00       0.00          0          0          0    0.00000    0.12500   -1.00000    1.00000      0.900    0    0    0    0    0    0    0    1
  zeroobjective    :          0       0.00       0.00          0          0          0    0.00000    0.12500   -1.00000    1.00000      0.900    0    0    0    0    0    0    0    1
  dins             :          0       0.00       0.00          0          0          0    0.00000    0.12500   -1.00000    1.00000      0.900    0    0    0    0    0    0    0    1
  trustregion      :          0       0.00       0.00          0          0          0    0.00000    0.00000   -1.00000    1.00000      0.900    0    0    0    0    0    0    0    0
LP                 :       Time      Calls Iterations  Iter/call   Iter/sec  Time-0-It Calls-0-It    ItLimit
  primal LP        :       0.00          0          0       0.00          -       0.00          0
  dual LP          :       0.00         12         32       4.57          -       0.00          5
  lex dual LP      :       0.00          0          0       0.00          -
  barrier LP       :       0.00          0          0       0.00          -       0.00          0
  resolve instable :       0.00          0          0       0.00          -
  diving/probing LP:       0.00          1          2       2.00          -
  strong branching :       0.00          0          0       0.00          -          -          -          0
    (at root node) :          -          0          0       0.00          -
  conflict analysis:       0.00          2         15       7.50          -
B&B Tree           :
  number of runs   :          1
  nodes            :          1 (0 internal, 1 leaves)
  feasible leaves  :          0
  infeas. leaves   :          0
  objective leaves :          0
  nodes (total)    :          1 (0 internal, 1 leaves)
  nodes left       :          0
  max depth        :          0
  max depth (total):          0
  backtracks       :          0 (0.0%)
  early backtracks :          0 (0.0%)
  nodes exc. ref.  :          0 (0.0%)
  delayed cutoffs  :          0
  repropagations   :          0 (0 domain reductions, 0 cutoffs)
  avg switch length:       2.00
  switching time   :       0.00
Root Node          :
  First LP value   : +1.06451612903226e+01
  First LP Iters   :         10 (43103.45 Iter/sec)
  First LP Time    :       0.00
  Final Dual Bound :          -
  Final Root Iters :         32
  Root LP Estimate :                     -
Solution           :
  Solutions found  :          5 (2 improvements)
  First Solution   : +2.10000000000000e+01   (in run 1, after 1 nodes, 0.04 seconds, depth 4, found by <clique>)
  Gap First Sol.   :   infinite
  Gap Last Sol.    :      87.88 %
  Primal Bound     : +2.00000000000000e+01   (in run 1, after 1 nodes, 0.05 seconds, depth 0, found by <shifting>)
  Dual Bound       : +2.00000000000000e+01
  Gap              :       0.00 %
Integrals          :      Total       Avg%
  primal-dual      :       5.35      80.67
  primal-ref       :          -          - (not evaluated)
  dual-ref         :          -          - (not evaluated)
